--- Command ---
python3 synplicate.py experiments/Adult3/ --solver=milp_solver_naive_old

--- Return Code: 0 ---

--- Standard Output (stdout) ---
Executing PAC procedure for ((0.05, 0.03))...
Extracting synthesis configuration... 
age:4:1,
hours_per_week:4:1,
workclass:9:1
experiments/Adult3//
(3, {'age': 4, 'hours_per_week': 4, 'workclass': 9}, {'age': 1, 'hours_per_week': 1, 'workclass': 1}, {'income': 2}, {'age': <function age at 0x7abe2fb0cdc0>, 'hours_per_week': <function hours_per_week at 0x7abe2fb0cd30>, 'workclass': <function workclass at 0x7abe2fb0ce50>, 'income': <function income at 0x7abe2fb0cee0>}, False)
Using 26423 samples ...
--- Found cache file 'experiments/Adult3/sampler_cache_adult_3_features.pkl'. Loading data. ---
Got 26423 samples ...
--- Head of Samples (first 5) ---
Sample 1: Features: (('age', 61.64306665458866), ('hours_per_week', 13.136156539616078), ('workclass', 'Federal-gov')) -> Label: [('income', '>50K')]
Sample 2: Features: (('age', 21.52287030394618), ('hours_per_week', 20.40135688747326), ('workclass', 'State-gov')) -> Label: [('income', '<=50K')]
Sample 3: Features: (('age', 55), ('hours_per_week', 42), ('workclass', 'Private')) -> Label: [('income', '>50K')]
Sample 4: Features: (('age', 31.805590532782823), ('hours_per_week', 45.44867300125943), ('workclass', 'Federal-gov')) -> Label: [('income', '<=50K')]
Sample 5: Features: (('age', 66.70515078544648), ('hours_per_week', 22.179088286055393), ('workclass', 'Private')) -> Label: [('income', '<=50K')]
---------------------------------
=================================
 Exploring solution in region [0,100,0]
=================================
|---Estimated maximum explanation score: 6
Translating to dimacs...
Translating to wcnfdimacs...
|---Extracting soft variables...
|---Estimated maximum explanation score: 6
|---Extracting threshold variables...
|---Writing WCNF File...
Using MILP solver: milp_solver_naive_old
Set parameter WLSAccessID
Set parameter WLSSecret
Set parameter LicenseID to value 2713262
Academic license 2713262 - for non-commercial use only - registered to hi___@iitb.ac.in
Set parameter OutputFlag to value 1
Max Sat...
Gurobi Optimizer version 13.0.0 build v13.0.0rc1 (linux64 - "Zorin OS 17.3")

CPU model: 12th Gen Intel(R) Core(TM) i5-12450H, instruction set [SSE2|AVX|AVX2]
Thread count: 12 physical cores, 12 logical processors, using up to 12 threads

Academic license 2713262 - for non-commercial use only - registered to hi___@iitb.ac.in
Optimize a model with 17898 rows, 6188 columns and 41613 nonzeros (Min)
Model fingerprint: 0x884ff7d5
Model has 219 linear objective coefficients
Variable types: 0 continuous, 6188 integer (6188 binary)
Coefficient statistics:
  Matrix range     [1e+00, 1e+00]
  Objective range  [6e+00, 9e+03]
  Bounds range     [1e+00, 1e+00]
  RHS range        [1e+00, 2e+00]
Presolve removed 9785 rows and 4611 columns
Presolve time: 0.21s
Presolved: 8113 rows, 1577 columns, 26872 nonzeros
Variable types: 0 continuous, 1577 integer (1577 binary)
Found heuristic solution: objective 44601.000000

Root relaxation: objective 4.110233e+04, 1167 iterations, 0.02 seconds (0.04 work units)

    Nodes    |    Current Node    |     Objective Bounds      |     Work
 Expl Unexpl |  Obj  Depth IntInf | Incumbent    BestBd   Gap | It/Node Time

     0     0 41102.3333    0  598 44601.0000 41102.3333  7.84%     -    0s

Cutting planes:
  Cover: 1
  Implied bound: 16
  MIR: 12
  Zero half: 127
  RLT: 103
  BQP: 6

Explored 1 nodes (2518 simplex iterations) in 0.52 seconds (0.74 work units)
Thread count was 12 (of 12 available processors)

Solution count 1: 44601 

Optimal solution found (tolerance 1.00e-04)
Best objective 4.460100000000e+04, best bound 4.460100000000e+04, gap 0.0000%
Total cost:44601.0
['age', 'hours_per_week', 'workclass']
SatSamples :19707
explainibilityReward: 22017
correctnessReward: 19707
experiments/Adult3//
Extracting program from witness...
(2,3) -> income_1
(2,2) -> income_1
(2,1) -> income_1
(2,0) -> income_1
(1,8) -> income_1
(1,7) -> income_1
(1,6) -> 2
(1,5) -> income_1
(1,4) -> income_1
(1,3) -> income_1
(1,2) -> income_1
(1,1) -> income_1
(1,0) -> income_1
(0,8) -> income_1
(0,7) -> income_0
(0,6) -> income_0
(0,5) -> income_0
(0,4) -> income_0
(0,3) -> income_0
(0,2) -> income_0
(0,1) -> income_0
(0,0) -> income_0
0: workclass
Synthesized program: experiments/Adult3//program/program_ms_0_100_0_erm.py
Visualization: experiments/Adult3//program/program_ms_0_100_0_erm.dot
Synthesis time:15.544458817021223
Accuracy:0.745827498770011 (19707/26423)
Explainability: 0.8332513340650192
Adding region (0,83,0.745827498770011)
Adding region (83,100,0)
=================================
Pareto-optimal solutions: 
 [('experiments/Adult3//program/program_ms_0_100_0_erm.py', 0.745827498770011, 0.8332513340650192)]


--- Standard Error (stderr) ---
